n_res = 4;
rc = [ 9, 11, 9, 14 ];
n_tasks = 30;
d = [ 10, 3, 1, 1, 7, 10, 4, 7, 2, 4, 2, 1, 4, 7, 9, 10, 8, 5, 10, 9, 2, 3, 6, 9, 2, 9, 4, 7, 2, 1 ];
rr = [| 2, 8, 0, 0, 5, 0, 0, 0, 0, 0, 0, 0, 0, 0, 2, 1, 0, 0, 0, 7, 0, 0, 0, 5, 0, 4, 0, 0, 0, 0
      | 0, 0, 5, 0, 0, 6, 0, 3, 0, 0, 5, 3, 0, 0, 0, 0, 7, 9, 5, 0, 0, 8, 0, 0, 0, 0, 10, 0, 0, 0
      | 0, 0, 0, 6, 0, 0, 6, 0, 0, 7, 0, 0, 8, 7, 0, 0, 0, 0, 0, 0, 0, 0, 0, 0, 0, 0, 0, 0, 0, 6
      | 0, 0, 0, 0, 0, 0, 0, 0, 3, 0, 0, 0, 0, 0, 0, 0, 0, 0, 0, 0, 2, 0, 9, 0, 9, 0, 0, 10, 4, 0 |];
suc = [ { 2 }, 
        { 1 }, 
        { 4 }, 
        { 3 }, 
        { 6 }, 
        { 5 }, 
        { 8 }, 
        { 7 }, 
        { 10 }, 
        { 9 }, 
        { 12 }, 
        { 11 }, 
        { 14 }, 
        { 13 }, 
        { 16 }, 
        { 15 }, 
        { 18 }, 
        { 17 }, 
        { 20 }, 
        { 19 }, 
        { 22 }, 
        { 21 }, 
        { 24 }, 
        { 23 }, 
        { 26 }, 
        { 25 }, 
        { 28 }, 
        { 27 }, 
        { 30 }, 
        { 29 }]; 
